
<<< setup

Version identifier: 22.1.1.0 | 2022-11-27 | 9160aff4d
Tried aggregator 1 time.
LP Presolve eliminated 106 rows and 83 columns.
Reduced LP has 1 rows, 8 columns, and 8 nonzeros.
Presolve time = 0.00 sec. (0.04 ticks)

Iteration log . . .
Iteration:     1   Dual objective     =          1468.498637
main returns 0

<<< main


<<< done

